Reading model...
...model read.
creating competitive generators file...
...competitive generators recorded.
Loading data...
.. real-time data read.
Compiling instance...
...instance created.
Creating Offer Mitigation (model will solve as dispatch if TRUE)...
...storage offer mitigation file created
Converting model to MPEC...
...converted
NOTE: initial MIP solve with only storage competitive to get feasible solution
Solving...

Welcome to IBM(R) ILOG(R) CPLEX(R) Interactive Optimizer 12.9.0.0
  with Simplex, Mixed Integer & Barrier Optimizers
5725-A06 5725-A29 5724-Y48 5724-Y49 5724-Y54 5724-Y55 5655-Y21
Copyright IBM Corp. 1988, 2019.  All Rights Reserved.

Type 'help' for a list of available commands.
Type 'help' followed by a command name for more
information on commands.

CPLEX> Logfile 'cplex.log' closed.
Logfile 'C:\Users\llavin\Desktop\test826\logs\tmp35m71ay3.cplex.log' open.
CPLEX> New value for parallel optimization mode: -1
CPLEX> New value for mixed integer optimality gap tolerance: 0.01
CPLEX> New value for emphasis for MIP optimization: 1
CPLEX> New value for integrality tolerance: 1e-12
CPLEX> New value for deterministic time limit in ticks: 150000
CPLEX> Problem 'C:\Users\llavin\Desktop\test826\logs\tmpvisozt9p.pyomo.lp' read.
Read time = 0.55 sec. (28.17 ticks)
CPLEX> Problem name         : C:\Users\llavin\Desktop\test826\logs\tmpvisozt9p.pyomo.lp
Objective sense      : Maximize
Variables            :  107795  [Nneg: 1,  Box: 44062,  Free: 8928,
                                 Binary: 54804]
Objective nonzeros   :   17378
Linear constraints   :  247027  [Less: 82874,  Greater: 118442,  Equal: 45711]
  Nonzeros           :  624880
  RHS nonzeros       :  134900

Variables            : Min LB: -5000.000        Max UB: 1000000.       
Objective nonzeros   : Min   : 0.001000000      Max   : 208.3333       
Linear constraints   :
  Nonzeros           : Min   : 0.008333333      Max   : 1000000.       
  RHS nonzeros       : Min   : 0.001000000      Max   : 1000000.       
CPLEX> CPXPARAM_Parallel                                -1
CPXPARAM_Emphasis_MIP                            1
CPXPARAM_DetTimeLimit                            150000
CPXPARAM_MIP_Tolerances_MIPGap                   0.01
CPXPARAM_MIP_Tolerances_Integrality              9.9999999999999998e-13
Tried aggregator 3 times.
MIP Presolve eliminated 182618 rows and 42222 columns.
MIP Presolve added 5999 rows and 0 columns.
MIP Presolve modified 50048 coefficients.
Aggregator did 25719 substitutions.
Reduced MIP has 44689 rows, 38222 columns, and 130456 nonzeros.
Reduced MIP has 15028 binaries, 0 generals, 0 SOSs, and 0 indicators.
Presolve time = 0.67 sec. (362.40 ticks)
Probing fixed 944 vars, tightened 11705 bounds.
Probing time = 0.39 sec. (16.08 ticks)
Tried aggregator 2 times.
MIP Presolve eliminated 2080 rows and 1888 columns.
MIP Presolve modified 14658 coefficients.
Aggregator did 94 substitutions.
Reduced MIP has 42515 rows, 36240 columns, and 124126 nonzeros.
Reduced MIP has 14084 binaries, 0 generals, 0 SOSs, and 0 indicators.
Presolve time = 0.25 sec. (216.59 ticks)
Probing fixed 0 vars, tightened 4899 bounds.
Probing time = 0.56 sec. (26.97 ticks)
Clique table members: 65768.
MIP emphasis: integer feasibility.
MIP search method: dynamic search.
Parallel mode: opportunistic, using up to 32 threads.
Root relaxation solution time = 0.98 sec. (1683.11 ticks)

        Nodes                                         Cuts/
   Node  Left     Objective  IInf  Best Integer    Best Bound    ItCnt     Gap

      0     0        0.0000   769                      0.0000    10592         
*     0+    0                            0.0000        0.0000             0.00%
      0     0        cutoff              0.0000        0.0000    10592    0.00%
Elapsed time = 3.64 sec. (2910.19 ticks, tree = 0.01 MB, solutions = 1)

Root node processing (before b&c):
  Real time             =    3.67 sec. (2913.98 ticks)
Parallel b&c, 32 threads:
  Real time             =    0.00 sec. (0.00 ticks)
  Sync time (average)   =    0.00 sec.
  Wait time (average)   =    0.00 sec.
                          ------------
Total (root+branch&cut) =    3.67 sec. (2913.98 ticks)

Solution pool: 1 solution saved.

MIP - Integer optimal solution:  Objective =  1.0228859537e-08
Solution time =    3.70 sec.  Iterations = 10592  Nodes = 0
Deterministic time = 2914.28 ticks  (787.01 ticks/sec)

CPLEX> Incumbent solution written to file 'C:\Users\llavin\Desktop\test826\logs\tmpl4h_uesn.cplex.sol'.
CPLEX> NOTE: no warmstart specified for MIP iteration, default behavior is true
NOTE: resolving with all competitive generators using storage-only solution to warmstart
Solving...

Welcome to IBM(R) ILOG(R) CPLEX(R) Interactive Optimizer 12.9.0.0
  with Simplex, Mixed Integer & Barrier Optimizers
5725-A06 5725-A29 5724-Y48 5724-Y49 5724-Y54 5724-Y55 5655-Y21
Copyright IBM Corp. 1988, 2019.  All Rights Reserved.

Type 'help' for a list of available commands.
Type 'help' followed by a command name for more
information on commands.

CPLEX> Logfile 'cplex.log' closed.
Logfile 'C:\Users\llavin\Desktop\test826\logs\tmp40tmqk1u.cplex.log' open.
CPLEX> New value for parallel optimization mode: -1
CPLEX> New value for mixed integer optimality gap tolerance: 0.01
CPLEX> New value for emphasis for MIP optimization: 1
CPLEX> New value for integrality tolerance: 1e-12
CPLEX> New value for deterministic time limit in ticks: 150000
CPLEX> Problem 'C:\Users\llavin\Desktop\test826\logs\tmpsla3dnj6.pyomo.lp' read.
Read time = 0.55 sec. (28.22 ticks)
CPLEX> MIP start file 'C:\Users\llavin\Desktop\test826\logs\tmpbl0stytg.cplex.mst' read.
CPLEX> Problem name         : C:\Users\llavin\Desktop\test826\logs\tmpsla3dnj6.pyomo.lp
Objective sense      : Maximize
Variables            :  109235  [Nneg: 1,  Box: 45502,  Free: 8928,
                                 Binary: 54804]
Objective nonzeros   :   18770
Linear constraints   :  247027  [Less: 82874,  Greater: 118442,  Equal: 45711]
  Nonzeros           :  624880
  RHS nonzeros       :  134900

Variables            : Min LB: -5000.000        Max UB: 1000000.       
Objective nonzeros   : Min   : 0.001000000      Max   : 208.3333       
Linear constraints   :
  Nonzeros           : Min   : 0.008333333      Max   : 1000000.       
  RHS nonzeros       : Min   : 0.001000000      Max   : 1000000.       
CPLEX> CPXPARAM_Parallel                                -1
CPXPARAM_Emphasis_MIP                            1
CPXPARAM_DetTimeLimit                            150000
CPXPARAM_MIP_Tolerances_MIPGap                   0.01
CPXPARAM_MIP_Tolerances_Integrality              9.9999999999999998e-13
Warning:  No solution found from 1 MIP starts.
Retaining values of one MIP start for possible repair.
Tried aggregator 3 times.
MIP Presolve eliminated 182618 rows and 43662 columns.
MIP Presolve added 5999 rows and 0 columns.
MIP Presolve modified 50048 coefficients.
Aggregator did 25719 substitutions.
Reduced MIP has 44689 rows, 38222 columns, and 130456 nonzeros.
Reduced MIP has 15028 binaries, 0 generals, 0 SOSs, and 0 indicators.
Presolve time = 0.69 sec. (363.15 ticks)
Probing fixed 944 vars, tightened 11705 bounds.
Probing time = 0.39 sec. (16.08 ticks)
Tried aggregator 2 times.
MIP Presolve eliminated 2080 rows and 1888 columns.
MIP Presolve modified 14658 coefficients.
Aggregator did 94 substitutions.
Reduced MIP has 42515 rows, 36240 columns, and 124126 nonzeros.
Reduced MIP has 14084 binaries, 0 generals, 0 SOSs, and 0 indicators.
Presolve time = 0.25 sec. (216.59 ticks)
Probing fixed 0 vars, tightened 4899 bounds.
Probing time = 0.56 sec. (26.97 ticks)
Clique table members: 65768.
MIP emphasis: integer feasibility.
MIP search method: dynamic search.
Parallel mode: opportunistic, using up to 32 threads.
Root relaxation solution time = 0.97 sec. (1709.13 ticks)

        Nodes                                         Cuts/
   Node  Left     Objective  IInf  Best Integer    Best Bound    ItCnt     Gap

      0     0     5611.2992   774                   5611.2992    10859         
      0     0     5611.2992    51                Flowcuts: 62    10876         
      0     0     5611.2992    54                    Cuts: 47    10893         
      0     0     5611.2992    49                    Cuts: 29    10902         
Repair heuristic found nothing.
      0    15     5595.7376    42                     Cuts: 4    10945         
Elapsed time = 9.17 sec. (4268.96 ticks, tree = 0.02 MB, solutions = 0)
    386    91     5606.6639    44                   5610.1604    11172         
    787   747     5593.6683    29                   5609.9030    15412         
   1128  1071     5576.4246    21                   5609.9030    18798         
   1362  1084     4592.1820    12                   5609.9030    19002         
   1719  1379     5598.8376    16                   5609.9030    24102         
   2091  1561     -762.1492    18                   5609.9030    30720         
   2537  2003     5395.2035    44                   5609.9030    48231         
   2940  2290    infeasible                         5609.9030    56340         
   3352  2212     5300.5520    42                   5609.9030    54139         
   4800  3044     5285.3604    39                   5608.3539    83459         
Elapsed time = 27.08 sec. (7377.94 ticks, tree = 65.25 MB, solutions = 0)
   6371  4130     1599.8874    39                   5608.3539   128112         
*  7128  4711      integral     0     5573.3701     5608.3539   145392    0.63%
   7535  5035      642.3672    35     5573.3701     5608.3539   154544    0.63%

Clique cuts applied:  1
Cover cuts applied:  11
Implied bound cuts applied:  4
Flow cuts applied:  63

Root node processing (before b&c):
  Real time             =    5.99 sec. (4188.80 ticks)
Parallel b&c, 32 threads:
  Real time             =   30.53 sec. (5219.41 ticks)
  Sync time (average)   =    2.19 sec.
  Wait time (average)   =    0.00 sec.
                          ------------
Total (root+branch&cut) =   36.52 sec. (9408.21 ticks)

Solution pool: 1 solution saved.

MIP - Integer optimal, tolerance (0.01/1e-06):  Objective =  5.5733701225e+03
Current MIP best bound =  5.6083538597e+03 (gap = 34.9837, 0.63%)
Solution time =   36.55 sec.  Iterations = 168389  Nodes = 7544 (1511)
Deterministic time = 9408.52 ticks  (257.44 ticks/sec)

CPLEX> Incumbent solution written to file 'C:\Users\llavin\Desktop\test826\logs\tmpwwkjaque.cplex.sol'.
CPLEX> Exporting results... 
